447, 0, 0, 87, 2
448, 0, 1, 49, 1
449, 0, 2, 75, 0
450, 0, 3, 53, 3
451, 1, 0, 49, 0
452, 1, 1, 58, 2
453, 1, 2, 32, 3
454, 1, 3, 33, 1
455, 2, 0, 43, 1
456, 2, 1, 68, 3
457, 2, 2, 88, 0
458, 2, 3, 52, 2
459, 3, 0, 31, 0
460, 3, 1, 46, 1
461, 3, 2, 71, 3
462, 3, 3, 37, 2
